; benchmark generated from python API
(set-info :status unknown)
(declare-datatypes ((RealState 0)) (((RMk1 (rval1 Real)) (RMk2 (rval2 Real)))))
 (assert
 (exists ((|v11:0_st| RealState) (val!6156 Real) )(exists ((|v10:1_st| RealState) (val!6157 Real) )(exists ((|v9:2_st| RealState) (val!6158 Real) )(exists ((|v8:3_st| RealState) (val!6159 Real) )(forall ((|v7:4| Real) )(forall ((|v6:5| Real) )(forall ((|v5:6| Real) )(forall ((|v4:7| Real) )(exists ((|v3:8_st| RealState) (val!6160 Real) )(exists ((|v2:9_st| RealState) (val!6161 Real) )(exists ((|v1:10_st| RealState) (val!6162 Real) )(exists ((|v0:11_st| RealState) (val!6163 Real) )(let ((?x3147 (rval2 |v9:2_st|)))
 (let ((?x1742 (* 12.0 ?x3147)))
 (let ((?x960 (+ (+ (+ (* 6.0 |v7:4|) (* 2.0 |v7:4|)) (* (- 17.0) |v4:7|)) ?x1742)))
 (let ((?x2096 (- 10.0)))
 (let ((?x1357 (* 13.0 |v5:6|)))
 (let ((?x337 (+ (+ (* 8.0 (rval2 |v10:1_st|)) (* (- 12.0) (rval2 |v10:1_st|))) (* 4.0 ?x3147))))
 (let ((?x2946 (- 12.0)))
 (let ((?x3138 (rval2 |v1:10_st|)))
 (let ((?x496 (- 19.0)))
 (let ((?x54 (* ?x496 ?x3138)))
 (let ((?x2410 (+ (+ (* 2.0 (rval2 |v0:11_st|)) (* (- 20.0) (rval2 |v11:0_st|))) (* 8.0 (rval2 |v3:8_st|)))))
 (let ((?x517 (* 7.0 |v5:6|)))
 (let ((?x721 (rval2 |v0:11_st|)))
 (let ((?x1176 (* 7.0 ?x721)))
 (let (($x991 (<= (+ (+ (+ (* (- 11.0) |v6:5|) (* 14.0 (rval2 |v8:3_st|))) ?x1176) ?x517) 11.0)))
 (let (($x624 (and (and $x991 (<= (+ ?x2410 ?x54) ?x2946)) (and (<= (+ ?x337 ?x1357) ?x2096) (<= ?x960 17.0)))))
 (let ((?x1633 (- 7.0)))
 (let ((?x1657 (+ (+ (+ (* 17.0 ?x721) (* 12.0 |v4:7|)) (* 9.0 |v6:5|)) (* (- 16.0) ?x721))))
 (let ((?x1143 (* ?x1633 |v7:4|)))
 (let ((?x220 (rval2 |v11:0_st|)))
 (let (($x270 (<= (+ (+ (+ (* (- 1.0) (rval2 |v2:9_st|)) (* 8.0 ?x220)) ?x220) ?x1143) ?x2946)))
 (let ((?x1774 (- 11.0)))
 (let ((?x1282 (+ (+ (+ (* (- 5.0) |v6:5|) (* 15.0 |v5:6|)) (* ?x1774 ?x220)) (* (- 18.0) |v6:5|))))
 (let ((?x2397 (rval2 |v3:8_st|)))
 (let ((?x940 (* 0.0 ?x2397)))
 (let ((?x3467 (+ (+ (+ (* ?x2096 ?x3147) (* (- 17.0) (rval2 |v2:9_st|))) ?x940) (* 18.0 (rval2 |v8:3_st|)))))
 (let (($x3045 (and (and (<= ?x3467 7.0) (<= ?x1282 ?x1774)) (and $x270 (<= ?x1657 ?x1633)))))
 (let ((?x139 (* 16.0 ?x3147)))
 (let ((?x2459 (* 15.0 |v7:4|)))
 (let ((?x2806 (+ (+ (+ (* (- 20.0) (rval2 |v10:1_st|)) (* (- 9.0) ?x2397)) ?x2459) ?x139)))
 (let ((?x1615 (+ (+ (* (- 14.0) ?x2397) (* (- 20.0) |v4:7|)) (* (- 1.0) ?x3138))))
 (let ((?x1531 (* 17.0 ?x3138)))
 (let (($x2879 (<= (+ (+ (+ (* (- 14.0) |v4:7|) ?x139) (* 14.0 |v6:5|)) ?x1531) 6.0)))
 (let ((?x1415 (- 15.0)))
 (let ((?x273 (rval2 |v2:9_st|)))
 (let ((?x576 (* 17.0 ?x273)))
 (let (($x2271 (<= (+ (+ (+ (* 0.0 ?x3147) (* 16.0 |v6:5|)) (* 14.0 ?x721)) ?x576) ?x1415)))
 (let (($x2638 (and (and $x2271 $x2879) (and (<= (+ ?x1615 (* (- 16.0) ?x3138)) 0.0) (<= ?x2806 ?x2946)))))
 (let ((?x599 (- 6.0)))
 (let ((?x3258 (+ (+ (+ (* 3.0 (rval2 |v8:3_st|)) (* 14.0 ?x2397)) (* ?x2946 ?x220)) (* (- 1.0) |v6:5|))))
 (let ((?x1319 (- 13.0)))
 (let ((?x2885 (+ (+ (+ ?x54 (* 12.0 |v5:6|)) (* 5.0 ?x3138)) (* (- 14.0) |v5:6|))))
 (let ((?x2572 (- 4.0)))
 (let ((?x3241 (* 8.0 |v5:6|)))
 (let ((?x2596 (+ (+ (+ (* (- 1.0) ?x273) (* 2.0 |v7:4|)) (* (- 18.0) ?x220)) ?x3241)))
 (let ((?x1890 (* 4.0 ?x2397)))
 (let (($x1240 (<= (+ (+ (+ (* 15.0 |v4:7|) (* 16.0 |v5:6|)) (* 10.0 |v5:6|)) ?x1890) 5.0)))
 (let (($x2514 (and (and (and $x1240 (<= ?x2596 ?x2572)) (and (<= ?x2885 ?x1319) (<= ?x3258 ?x599))) $x2638)))
 (let ((?x2810 (+ (+ (+ (* 4.0 ?x220) (* 16.0 ?x3138)) (* 7.0 (rval2 |v10:1_st|))) (* ?x599 |v6:5|))))
 (let ((?x3150 (* 20.0 ?x273)))
 (let ((?x2503 (- 3.0)))
 (let ((?x2906 (* ?x2503 ?x2397)))
 (let (($x3143 (<= (+ (+ (+ (* ?x2503 |v5:6|) (* (- 5.0) ?x3138)) ?x2906) ?x3150) 5.0)))
 (let ((?x1872 (+ (+ (+ (* 0.0 ?x3138) (* ?x2503 ?x220)) (* 18.0 ?x2397)) (* ?x1415 ?x2397))))
 (let ((?x2387 (- 1.0)))
 (let ((?x2487 (+ (+ (+ (* 3.0 (rval2 |v8:3_st|)) (* (- 9.0) ?x2397)) (* 18.0 |v4:7|)) (* 20.0 (rval2 |v8:3_st|)))))
 (let (($x3371 (and (and (<= ?x2487 ?x2387) (<= ?x1872 15.0)) (and $x3143 (<= ?x2810 10.0)))))
 (let ((?x3174 (+ (+ (+ (* 9.0 (rval2 |v8:3_st|)) (* 13.0 |v6:5|)) (* 7.0 ?x3147)) (* ?x1319 ?x3138))))
 (let ((?x1709 (- 16.0)))
 (let ((?x2256 (+ (+ (+ (* ?x1319 ?x273) (* ?x1633 |v6:5|)) (* ?x1774 |v6:5|)) (* (- 2.0) ?x3138))))
 (let (($x2562 (<= (+ (+ (+ (* ?x496 ?x220) (* ?x2387 ?x3147)) (* 10.0 |v7:4|)) ?x940) 20.0)))
 (let ((?x680 (* 17.0 ?x721)))
 (let (($x1157 (<= (+ (+ (+ (* 10.0 |v7:4|) (* ?x496 ?x721)) (* 4.0 |v5:6|)) ?x680) 8.0)))
 (let (($x452 (and (and (and $x1157 $x2562) (and (<= ?x2256 ?x1709) (<= ?x3174 12.0))) $x3371)))
 (let ((?x1084 (+ (+ (+ (* 13.0 |v7:4|) (* (- 5.0) ?x3147)) (* 13.0 (rval2 |v10:1_st|))) |v5:6|)))
 (let ((?x3044 (- 20.0)))
 (let ((?x1163 (* ?x3044 |v6:5|)))
 (let ((?x416 (+ (+ (+ (* (- 5.0) (rval2 |v8:3_st|)) (* ?x2387 (rval2 |v8:3_st|))) ?x1163) (* (- 18.0) ?x2397))))
 (let ((?x850 (+ (+ (* 16.0 (rval2 |v8:3_st|)) (* ?x1633 (rval2 |v8:3_st|))) (* (- 5.0) ?x273))))
 (let ((?x209 (+ (+ (+ (* 3.0 ?x273) (* ?x2503 ?x220)) (* ?x2572 |v6:5|)) (* ?x2946 ?x3147))))
 (let (($x3213 (and (and (<= ?x209 11.0) (<= (+ ?x850 (* 20.0 (rval2 |v10:1_st|))) 16.0)) (and (<= ?x416 5.0) (<= ?x1084 18.0)))))
 (let ((?x3070 (+ (+ (* (- 17.0) (rval2 |v8:3_st|)) (* (- 2.0) ?x220)) (* 20.0 |v7:4|))))
 (let ((?x634 (* 9.0 ?x3147)))
 (let ((?x3075 (+ (+ (+ (* 18.0 (rval2 |v10:1_st|)) (* 0.0 (rval2 |v8:3_st|))) ?x634) (* ?x1319 ?x3147))))
 (let ((?x2250 (rval2 |v10:1_st|)))
 (let ((?x1100 (* 12.0 ?x2250)))
 (let ((?x584 (+ (+ (+ (* 3.0 |v4:7|) (* 3.0 (rval2 |v8:3_st|))) (* ?x2946 ?x2397)) ?x1100)))
 (let (($x2795 (or (<= ?x584 4.0) (<= (+ (+ (+ (* ?x599 |v4:7|) (* 5.0 ?x3138)) ?x3241) ?x3150) 6.0))))
 (let (($x256 (or $x2795 (and (<= ?x3075 8.0) (<= (+ ?x3070 (* 9.0 ?x2250)) 9.0)))))
 (let (($x3477 (<= (+ (+ (+ ?x634 (* ?x496 ?x273)) (* ?x1709 |v4:7|)) (* (- 5.0) ?x220)) 1.0)))
 (let ((?x1477 (- 5.0)))
 (let ((?x2072 (- 14.0)))
 (let ((?x2119 (* ?x2072 ?x721)))
 (let (($x1221 (or (<= (+ (+ (+ ?x2397 (* 19.0 ?x273)) (* 11.0 ?x220)) ?x2119) ?x1477) $x3477)))
 (let ((?x1258 (* ?x2946 ?x721)))
 (let (($x2854 (<= (+ (+ (+ (* 5.0 ?x2397) (* ?x1709 |v4:7|)) (* 5.0 |v5:6|)) ?x1258) ?x2096)))
 (let (($x3223 (<= (+ (+ (+ (* 2.0 ?x3147) ?x1143) (* ?x1319 ?x721)) (* 3.0 ?x220)) 11.0)))
 (let ((?x1277 (* ?x2387 |v7:4|)))
 (let (($x2401 (<= (+ (+ (+ (* 9.0 |v7:4|) (* 19.0 ?x2397)) (* ?x3044 ?x721)) ?x1277) ?x2503)))
 (let ((?x3129 (+ (+ (+ (* ?x2503 |v7:4|) (* 11.0 |v4:7|)) (* 19.0 ?x2250)) (* ?x2572 ?x721))))
 (let ((?x1642 (- 18.0)))
 (let ((?x132 (* ?x2072 |v7:4|)))
 (let (($x674 (<= (+ (+ (+ (* 3.0 ?x721) (* 11.0 ?x220)) (* 10.0 ?x2397)) ?x132) ?x1642)))
 (let ((?x2749 (- 17.0)))
 (let ((?x3207 (* ?x2749 ?x273)))
 (let (($x45 (<= (+ (+ (+ (* ?x2096 ?x721) (* ?x496 ?x721)) (* ?x2096 ?x273)) ?x3207) ?x2749)))
 (let (($x3334 (and (and (and $x45 $x674) (and (<= ?x3129 ?x1633) $x2401)) (and (and $x3223 $x2854) $x1221))))
 (let ((?x2285 (* 7.0 |v6:5|)))
 (let ((?x2777 (+ (+ (+ (* ?x2946 (rval2 |v8:3_st|)) (* 0.0 ?x2250)) (* ?x2572 ?x273)) ?x2285)))
 (let ((?x226 (* 19.0 ?x721)))
 (let (($x1913 (<= (+ (+ (+ (* ?x1415 |v5:6|) (* ?x599 ?x3138)) (* ?x496 |v5:6|)) ?x226) ?x2096)))
 (let ((?x1407 (+ (+ (+ (* 20.0 ?x721) (* 14.0 ?x3138)) (* 9.0 ?x721)) (* ?x496 |v6:5|))))
 (let ((?x2920 (+ (+ (+ (* 13.0 ?x220) (* 8.0 ?x3147)) (* (- 2.0) ?x2397)) (* ?x1642 |v5:6|))))
 (let (($x1023 (and (and (<= ?x2920 20.0) (<= ?x1407 2.0)) (and $x1913 (<= ?x2777 11.0)))))
 (let ((?x2243 (* ?x496 ?x220)))
 (let (($x2441 (<= (+ (+ (+ ?x132 (* 8.0 ?x2250)) (* ?x1709 (rval2 |v8:3_st|))) ?x2243) 15.0)))
 (let (($x1149 (<= (+ (+ (+ (* 19.0 ?x2397) (* ?x2503 ?x220)) ?x940) (* ?x1319 ?x220)) ?x1319)))
 (let ((?x2051 (* 18.0 |v4:7|)))
 (let ((?x3134 (+ (+ (+ (* ?x2503 ?x220) (* 17.0 ?x220)) (* 11.0 (rval2 |v8:3_st|))) ?x2051)))
 (let ((?x1205 (+ (+ (+ (* (- 8.0) ?x721) (* 11.0 |v5:6|)) (* 0.0 |v6:5|)) (* ?x2387 ?x220))))
 (let (($x2661 (and (and (and (or (<= ?x1205 ?x3044) (<= ?x3134 ?x1477)) (and $x1149 $x2441)) $x1023) $x3334)))
 (let ((?x2118 (+ (+ (+ (* 0.0 |v4:7|) (* (- 9.0) ?x2397)) (* ?x1319 |v4:7|)) (* 20.0 |v5:6|))))
 (let ((?x442 (+ (+ (+ (* 11.0 ?x3138) (* ?x2572 |v7:4|)) (* 5.0 ?x3147)) (* (- 9.0) |v5:6|))))
 (let ((?x223 (+ (+ (+ (* 16.0 |v4:7|) (* ?x2096 ?x3138)) (* ?x599 |v7:4|)) (* ?x1709 ?x220))))
 (let (($x102 (<= (+ (+ (+ (* 12.0 ?x220) (* 19.0 |v7:4|)) |v7:4|) (* ?x1709 |v7:4|)) ?x1774)))
 (let (($x2757 (and (and $x102 (<= ?x223 ?x599)) (and (<= ?x442 ?x2749) (<= ?x2118 6.0)))))
 (let ((?x2180 (* 9.0 |v5:6|)))
 (let (($x2199 (<= (+ (+ (+ (* 3.0 ?x273) (* ?x3044 |v7:4|)) (* ?x1709 |v7:4|)) ?x2180) 20.0)))
 (let (($x1635 (<= (+ (+ (+ ?x1890 (* (- 8.0) ?x721)) (* ?x2387 |v4:7|)) (* 13.0 ?x721)) ?x2572)))
 (let ((?x918 (* 16.0 |v5:6|)))
 (let ((?x2329 (+ (+ (+ (* 5.0 ?x3138) (* ?x1774 |v5:6|)) (* 15.0 (rval2 |v8:3_st|))) ?x918)))
 (let ((?x450 (+ (+ (+ (* 15.0 |v6:5|) (* ?x1709 |v5:6|)) (* ?x1415 |v7:4|)) (* ?x1415 ?x3138))))
 (let (($x1674 (and (and (and (<= ?x450 4.0) (<= ?x2329 ?x2503)) (or $x1635 $x2199)) $x2757)))
 (let ((?x3328 (* 11.0 ?x2250)))
 (let (($x2663 (<= (+ (+ (+ (* 4.0 ?x220) (* 19.0 ?x3138)) (* ?x3044 ?x3138)) ?x3328) ?x2572)))
 (let (($x1090 (<= (+ (+ (+ (* 10.0 |v6:5|) (* 9.0 ?x2397)) (* ?x2072 ?x220)) ?x634) ?x1319)))
 (let ((?x3255 (* 7.0 ?x2250)))
 (let (($x2612 (<= (+ (+ (+ (* ?x1477 ?x2397) (* ?x1415 |v4:7|)) (* ?x2946 ?x2397)) ?x3255) 3.0)))
 (let ((?x2818 (+ (+ (+ (* 19.0 |v5:6|) (* (- 9.0) ?x220)) (* 3.0 |v4:7|)) (* ?x599 (rval2 |v8:3_st|)))))
 (let (($x784 (<= (+ (+ (+ (* ?x3044 ?x273) (* (- 8.0) ?x3138)) ?x1163) ?x2180) 19.0)))
 (let (($x197 (and $x784 (<= (+ (+ (+ ?x3207 (* 6.0 ?x220)) ?x1357) (* ?x3044 ?x2250)) 9.0))))
 (let (($x75 (<= (+ (+ (+ (* ?x496 |v7:4|) (* 2.0 ?x3147)) (* 10.0 |v4:7|)) ?x2906) ?x2503)))
 (let (($x3092 (and (<= (+ (+ (+ ?x2119 (* 6.0 ?x2397)) ?x1258) (* ?x1415 |v5:6|)) ?x1477) $x75)))
 (let (($x858 (and (and $x3092 $x197) (and (and (<= ?x2818 13.0) $x2612) (and $x1090 $x2663)))))
 (let (($x2088 (and (and (and $x858 $x1674) $x2661) (and (and (and $x256 $x3213) $x452) (or $x2514 (and $x3045 $x624))))))
 (let (($x1161 (not (= |v0:11_st| (RMk1 val!6163)))))
 (let (($x1272 (not (= |v1:10_st| (RMk1 val!6162)))))
 (let (($x1346 (not (= |v2:9_st| (RMk1 val!6161)))))
 (let (($x2005 (not (= |v3:8_st| (RMk1 val!6160)))))
 (let (($x1367 (not (= |v8:3_st| (RMk1 val!6159)))))
 (let (($x3058 (not (= |v9:2_st| (RMk1 val!6158)))))
 (let (($x1294 (not (= |v10:1_st| (RMk1 val!6157)))))
 (let (($x2915 (not (= |v11:0_st| (RMk1 val!6156)))))
 (and $x2915 $x1294 $x3058 $x1367 $x2005 $x1346 $x1272 $x1161 $x2088)))))))))))))))))))))))))))))))))))))))))))))))))))))))))))))))))))))))))))))))))))))))))))))))))))))))))))))))))))))))))))))))))))))))))))))))))
 )
 )
 )
 )
 )
 )
 )
 )
 )
 )
 )
 )
(check-sat)
